qe/outputs/qe/qe_queries_cbrdelay_obs/T=5,eliminate=[I_0,I_1,I_2,I_3,I_4,L_1,L_2,L_3,L_4,C,B,S_4].smt2
; benchmark generated from python API
(set-info :status unknown)
(declare-fun S_1 () Real)
(declare-fun S_3 () Real)
(declare-fun A_0 () Real)
(declare-fun L_0 () Real)
(declare-fun S_0 () Real)
(declare-fun S_2 () Real)
(declare-fun A_1 () Real)
(declare-fun loss_rate_tol () Real)
(declare-fun A_3 () Real)
(declare-fun A_4 () Real)
(declare-fun A_2 () Real)
(assert
 (let (($x3703 (<= (+ (* (- 1.0) S_3) L_0 (* (- 1.0) A_0) (* 2.0 S_1)) 0.0)))
 (let (($x34 (>= L_0 0.0)))
 (let ((?x3865 (* (/ 3.0 2.0) loss_rate_tol)))
 (let ((?x1042 (* (- 1.0) S_0)))
 (let ((?x2143 (* (/ 3.0 2.0) A_3)))
 (let ((?x3822 (* (- (/ 3.0 2.0)) A_4)))
 (let (($x44327 (not (<= 0.0 (+ S_3 ?x3822 ?x2143 ?x1042 ?x3865)))))
 (let (($x41722 (not (<= (- 5.0) (+ (* (- (/ 1.0 4.0)) A_4) (* (/ 1.0 4.0) A_3))))))
 (let (($x41496 (not (<= (+ A_4 (* (- 1.0) A_1) (* (- 1.0) loss_rate_tol)) 15.0))))
 (let (($x39902 (not (<= (- 5.0) (+ (* (- (/ 1.0 6.0)) A_4) (* (/ 1.0 6.0) S_1) (* (/ 1.0 6.0) L_0))))))
 (let (($x39677 (not (<= 0.0 loss_rate_tol))))
 (let (($x41407 (<= (- 5.0) (+ S_3 (* (- 1.0) A_4) A_3 (* (- 1.0) S_2) loss_rate_tol))))
 (let (($x41408 (not $x41407)))
 (let (($x43322 (not (<= (- 5.0) (+ (* (/ 1.0 5.0) L_0) (* (- (/ 1.0 5.0)) A_4) (* (/ 1.0 5.0) S_2))))))
 (let ((?x993 (* (- 1.0) A_0)))
 (let ((?x471 (* (- 1.0) A_4)))
 (let (($x41368 (not (<= 0.0 (+ S_3 ?x471 A_3 ?x993 loss_rate_tol L_0)))))
 (let (($x41785 (not (<= 0.0 (+ S_3 ?x471 A_3 (* (- 1.0) S_1) loss_rate_tol)))))
 (let (($x41222 (<= (- 5.0) (+ (* (- (/ 1.0 2.0)) A_4) (* (/ 1.0 2.0) A_2) (* (/ 1.0 2.0) loss_rate_tol)))))
 (let (($x41218 (not $x41222)))
 (let (($x43646 (not (<= 0.0 (+ A_1 ?x471 S_2 ?x1042 loss_rate_tol)))))
 (let (($x43011 (not (<= 0.0 (+ (* (- (/ 3.0 4.0)) A_4) (* (/ 3.0 4.0) A_3) S_2 ?x1042)))))
 (let (($x42623 (<= 0.0 (+ (* (/ 3.0 5.0) L_0) (* (- (/ 3.0 5.0)) A_4) (* (/ 8.0 5.0) S_2) ?x1042))))
 (let (($x42624 (not $x42623)))
 (let (($x42043 (not (<= 0.0 (+ ?x471 (* 4.0 S_1) (* (- 3.0) S_0) L_0)))))
 (let (($x41798 (<= 0.0 (+ ?x471 A_3 (* (/ 1.0 2.0) S_1) (* (- (/ 1.0 2.0)) S_0) loss_rate_tol))))
 (let ((?x1856 (* (- (/ 2.0 3.0)) A_1)))
 (let (($x41760 (<= 0.0 (+ (* (- (/ 1.0 3.0)) S_3) (* (/ 2.0 3.0) A_3) ?x1856 (* (/ 1.0 3.0) S_0)))))
 (let (($x41761 (not $x41760)))
 (let (($x41807 (not (<= 0.0 (+ A_1 S_3 ?x471 (* (- 1.0) S_1) loss_rate_tol)))))
 (let ((?x522 (* (- 1.0) S_1)))
 (let ((?x1995 (* (- (/ 3.0 4.0)) A_4)))
 (let ((?x2109 (* (/ 7.0 4.0) S_3)))
 (let (($x438 (not (<= 0.0 (+ ?x2109 ?x1995 ?x522 (* (/ 3.0 4.0) L_0))))))
 (let ((?x7734 (* (/ 2.0 3.0) loss_rate_tol)))
 (let ((?x2525 (* (- (/ 2.0 3.0)) A_4)))
 (let ((?x1827 (* (/ 2.0 3.0) A_1)))
 (let (($x42962 (not (<= 0.0 (+ L_0 (* (- (/ 1.0 2.0)) A_4) (* (/ 1.0 2.0) A_3) ?x993 S_2)))))
 (let (($x41670 (<= 0.0 (+ (* (/ 7.0 5.0) L_0) (* (- (/ 2.0 5.0)) A_4) ?x993 (* (/ 7.0 5.0) S_2)))))
 (let (($x41671 (not $x41670)))
 (let (($x95976 (or $x39677 $x41368 $x41671 $x42962 (not (<= 0.0 (+ ?x1827 L_0 ?x2525 ?x993 S_2 ?x7734))))))
 (let (($x45836 (<= (+ (* (- (/ 1.0 3.0)) A_4) (* (/ 1.0 3.0) A_1) (* (/ 1.0 3.0) loss_rate_tol)) (- 5.0))))
 (let (($x46212 (not $x45836)))
 (let (($x372 (not (<= (- 5.0) (+ (* (- (/ 1.0 7.0)) A_4) (* (/ 1.0 7.0) S_0) (* (/ 1.0 7.0) L_0))))))
 (let (($x43767 (<= (- 5.0) (+ (* (- (/ 1.0 2.0)) A_4) (* (/ 1.0 2.0) A_3) (* (/ 1.0 2.0) loss_rate_tol)))))
 (let (($x43768 (not $x43767)))
 (let (($x41187 (not (<= 0.0 (+ ?x2109 ?x1995 ?x993 (* (/ 7.0 4.0) L_0))))))
 (let (($x95494 (or (not (<= 0.0 (+ S_3 L_0 ?x3822 (* (/ 3.0 2.0) A_2) ?x993 ?x3865))) $x39677 $x41187)))
 (let (($x42917 (not (<= 0.0 (+ L_0 (* (- (/ 1.0 4.0)) A_4) (* (/ 1.0 4.0) A_3) ?x993 S_1)))))
 (let (($x40295 (<= 0.0 (+ (* (- (/ 1.0 6.0)) A_4) ?x993 (* (/ 7.0 6.0) S_1) (* (/ 7.0 6.0) L_0)))))
 (let (($x40169 (not $x40295)))
 (let ((?x5393 (* (- 3.0) L_0)))
 (let ((?x3784 (* (- 1.0) loss_rate_tol)))
 (let ((?x1704 (* (- 3.0) S_1)))
 (let ((?x5392 (* 3.0 A_0)))
 (let ((?x483 (* (- 1.0) A_1)))
 (let (($x5366 (not (<= (+ A_4 ?x483 ?x5392 ?x1704 ?x3784 ?x5393) 0.0))))
 (let ((?x3962 (* 2.0 loss_rate_tol)))
 (let ((?x511 (* (- 1.0) S_2)))
 (let ((?x6016 (* 2.0 A_3)))
 (let ((?x3960 (* (- 2.0) A_4)))
 (let ((?x1724 (* 2.0 S_3)))
 (let (($x44373 (not (<= 0.0 (+ ?x1724 ?x3960 ?x6016 ?x511 ?x1042 ?x3962)))))
 (let (($x43096 (<= 0.0 (+ ?x471 A_3 (* (/ 1.0 2.0) S_2) (* (- (/ 1.0 2.0)) S_1) loss_rate_tol))))
 (let (($x42012 (<= 0.0 (+ (* (/ 2.0 5.0) L_0) (* (- (/ 2.0 5.0)) A_4) (* (/ 7.0 5.0) S_2) ?x522))))
 (let (($x42013 (not $x42012)))
 (let (($x95125 (or $x438 (not (<= 0.0 (+ S_3 ?x3822 (* (/ 3.0 2.0) A_2) ?x522 ?x3865))) $x39677)))
 (let (($x43173 (not (<= 0.0 (+ ?x1827 ?x2525 S_2 ?x522 ?x7734)))))
 (let (($x42955 (not (<= 0.0 (+ (* (- (/ 1.0 2.0)) A_4) (* (/ 1.0 2.0) A_3) S_2 ?x522)))))
 (let (($x41898 (not (<= 0.0 (+ ?x3822 (* (/ 3.0 2.0) A_2) S_2 ?x1042 ?x3865)))))
 (let (($x43128 (not (<= 0.0 (+ (* (- (/ 1.0 2.0)) A_4) (* (/ 1.0 2.0) A_3) S_1 ?x1042)))))
 (let (($x96134 (or $x39677 (not (<= 0.0 (+ ?x471 A_2 S_1 ?x1042 loss_rate_tol))) $x42043 $x43128)))
 (let (($x42650 (not (<= 0.0 (+ ?x1724 ?x471 ?x1042 L_0)))))
 (let ((?x6284 (* (/ 4.0 3.0) loss_rate_tol)))
 (let ((?x2303 (* (- (/ 4.0 3.0)) A_4)))
 (let ((?x1822 (* (/ 4.0 3.0) A_1)))
 (let (($x42138 (not (<= 0.0 (+ ?x1822 S_3 ?x2303 ?x1042 ?x6284)))))
 (let (($x42358 (<= 0.0 (+ A_1 ?x471 (* (/ 3.0 2.0) S_1) (* (- (/ 3.0 2.0)) S_0) loss_rate_tol))))
 (let (($x42359 (not $x42358)))
 (let (($x41613 (<= 0.0 (+ (* (- (/ 1.0 2.0)) A_3) ?x993 (* (/ 3.0 2.0) S_1) (* (/ 3.0 2.0) L_0)))))
 (let ((?x1591 (* 2.0 S_1)))
 (let (($x41382 (<= 0.0 (+ (* 2.0 L_0) ?x471 A_2 (* (- 2.0) A_0) ?x1591 loss_rate_tol))))
 (let (($x94089 (or $x39677 $x41671 (not (<= 0.0 (+ L_0 ?x471 A_2 ?x993 S_2 loss_rate_tol))) $x42962)))
 (let ((?x9001 (* 3.0 loss_rate_tol)))
 (let ((?x3697 (* 3.0 A_3)))
 (let ((?x9003 (* (- 3.0) A_4)))
 (let (($x41447 (not (<= (- 20.0) (+ S_3 L_0 ?x471)))))
 (let (($x41325 (not (<= (- 5.0) (+ ?x471 A_3 loss_rate_tol)))))
 (let (($x47872 (or $x39677 (not (<= 0.0 (+ ?x471 A_2 S_2 ?x522 loss_rate_tol))) $x42013 $x42955)))
 (let (($x39398 (not (<= 0.0 (+ S_3 ?x3960 (* 2.0 A_2) ?x1042 ?x3962)))))
 (let (($x342 (<= 0.0 (+ (* (/ 3.0 2.0) S_3) (* (- (/ 1.0 2.0)) A_4) ?x511 (* (/ 1.0 2.0) L_0)))))
 (let (($x340 (not $x342)))
 (let ((?x1729 (* (/ 1.0 2.0) L_0)))
 (let ((?x15500 (* (/ 1.0 2.0) S_2)))
 (let (($x43085 (not (<= 0.0 (+ ?x471 A_3 (* (- (/ 1.0 2.0)) A_0) ?x15500 loss_rate_tol ?x1729)))))
 (let (($x96473 (or $x39677 $x41187 (not (<= 0.0 (+ S_3 L_0 ?x9003 ?x3697 ?x993 ?x9001))))))
 (let ((?x9180 (* 4.0 loss_rate_tol)))
 (let ((?x6289 (* 4.0 A_3)))
 (let ((?x9191 (* (- 4.0) A_4)))
 (let (($x53664 (or $x39677 $x40169 $x41761 (not (<= 0.0 (+ ?x471 A_3 ?x993 S_1 loss_rate_tol L_0))))))
 (let (($x41692 (or $x39677 $x41187 (not (<= 0.0 (+ S_3 ?x471 A_1 ?x993 loss_rate_tol L_0))))))
 (let (($x41503 (or $x340 $x39677 (not (<= 0.0 (+ S_3 ?x471 A_2 ?x511 loss_rate_tol))))))
 (let (($x119 (>= A_1 A_0)))
 (let (($x108 (>= S_1 S_0)))
 (let (($x111 (>= S_2 S_1)))
 (let (($x114 (>= S_3 S_2)))
 (let (($x120 (>= A_2 A_1)))
 (let (($x121 (>= A_3 A_2)))
 (let (($x122 (>= A_4 A_3)))
 (and $x122 $x121 $x120 $x114 $x111 $x108 $x119 $x41503 (or $x340 $x39677 (not (<= 0.0 (+ ?x1827 S_3 ?x2525 ?x511 ?x7734)))) $x41692 $x53664 (or $x5366 $x39677 $x40169 $x41761) (or $x438 $x39677 (not (<= 0.0 (+ S_3 ?x9003 ?x3697 ?x522 ?x9001)))) (or $x39677 $x41898 $x42013 $x42955) (or $x39398 $x39677 $x42650) (or $x39677 $x39902 $x41496 $x41761) (or $x39677 (not (<= 0.0 (+ S_3 ?x9191 ?x6289 ?x1042 ?x9180))) $x42650) $x96473 (or $x39677 $x41671 $x42962 $x43085) (or $x340 $x39677 (not (<= 0.0 (+ S_3 ?x3960 ?x6016 ?x511 ?x3962)))) (or $x39677 $x42138 $x42650 $x44373) (or $x39677 $x42043 $x42359 $x43128 $x44373) (or $x39677 $x42138 $x42650 $x44327) (or $x39677 $x42043 $x42359 $x43128 $x44327) (or $x39398 $x39677 $x42013 $x42955) $x47872 (or $x39677 $x41218 $x41447) (or $x39677 $x41325 $x41761 $x43322) (or $x39677 $x41325 $x41447) (or $x39677 $x41761 $x42013 $x43173) (or $x39677 $x39902 $x41325 $x41761) (or $x39677 $x41761 $x42624 (not (<= 0.0 (+ ?x9003 ?x3697 S_2 ?x1042 ?x9001)))) (or $x372 $x39677 $x41325 $x41722) (or $x39677 $x41447 $x41496 $x44373) $x94089 (or $x39677 $x40169 (not $x41382) $x42917) (or $x39677 $x41368 $x41447 $x41496) (or $x39677 $x41368 $x42624 $x43011 $x43646) (or $x39677 $x41368 (not $x41613) $x42917) (or $x39677 $x39902 $x41368 $x41496 $x41722) (or $x39677 $x41368 $x42043 $x42359 $x43128) (or $x39677 $x41785 $x42138 $x42650) (or $x39677 $x41368 $x42138 $x42650) (or $x372 $x39677 $x41496 $x41761) $x96134 (or $x39677 $x41898 $x42624 $x43011) (or $x39677 $x41496 $x41761 $x43322) (or $x39677 $x41496 $x41722 $x43322 $x43768) (or $x39677 $x41785 $x42624 $x43011 $x43646) (or $x39677 $x41785 $x42013 $x42955 $x43173) $x95125 (or $x39677 $x41761 $x42013 (not $x43096)) (or $x39677 $x39902 $x41496 $x41722 $x44373) (or $x372 $x39677 $x41368 $x41496 $x41722) (or $x372 $x39677 $x41496 $x41722 $x41785) (or $x372 $x39677 $x41408 $x41496 $x41722) (or $x5366 $x39677 $x40169 $x41368 $x42917) $x95494 (or $x372 $x39677 $x41496 $x41722 $x43768) (or $x39677 $x39902 $x41496 $x41722 $x43768) (or $x39677 $x41408 $x41447 $x41496) (or $x372 $x39677 $x41218 $x46212) (or $x39677 $x41218 $x43322 $x46212) $x95976 (or $x438 $x39677 $x41807) (or $x39677 $x41447 $x41496 $x41785) (or $x39677 $x41761 (not $x41798) $x42043) (or $x39677 $x42624 $x43011 $x43646 $x44327) (or $x39677 $x39902 $x41218 $x41722) (or $x39677 $x41496 $x41722 $x43322 $x44327) (or $x39677 $x41447 $x41496 $x44327) (or $x39677 $x41496 $x41722 $x41785 $x43322) (or $x39677 $x41368 $x41496 $x41722 $x43322) (or $x39677 $x39902 $x41408 $x41496 $x41722) (or $x39677 $x39902 $x41496 $x41722 $x44327) $x34 (<= (+ L_0 ?x993 S_0) 0.0) (not (>= (+ ?x483 S_3 L_0) 0.0)) (<= (+ (* (- (/ 1.0 2.0)) S_3) (* (/ 1.0 2.0) S_0)) (- 5.0)) (<= (+ ?x511 S_0) (- 5.0)) (<= (+ (* (/ 1.0 3.0) S_3) ?x511 (* (/ 2.0 3.0) S_0)) 0.0) (<= (+ (* (- 1.0) S_3) (* (/ 3.0 2.0) S_1) (* (- (/ 1.0 2.0)) S_0)) 0.0) $x3703 (<= (+ (* (- 1.0) S_3) S_1) (- 5.0)))))))))))))))))))))))))))))))))))))))))))))))))))))))))))))))))))))))))))))))))))))))))))))))))))))))))))))))))
(check-sat)
